%mem=600Mb
%NprocShared=1
#HF/cc-pVDZ SP POP=AllOrbitals

comment
 
0 1
O     0.000000     0.000000     0.968379
H     0.000000     0.000000     0.000000
H     0.930013     0.000000     1.208368

