
# QCHEM detects only Cs group for this geometry
# We'd probably need to switch to Z-matrix to take
# full advantage of C2V symmetry
$molecule
0 1
O    -0.0099755784    0.0000000000    0.9726896344
H     0.0080215243    0.0000000000    0.0034780470
H     0.9319670541    0.0000000000    1.2005793185
$end


$rem
METHOD         = EOM-CCSD
SCF_ALGORITHM  = diis_gdm
SYMMETRY       = true
CC_SYMMETRY    = true
DIP_SINGLETS   = [7,3]
DIP_TRIPLETS   = [3,3]
BASIS          = cc-pVQZ
CC_EOM_PROP    = false
CC_MEMORY      = 1024
EOM_DAVIDSON_CONVERGENCE = 6
$end
